
        $ From http://www.csplib.org/Problems/prob009/data/helmut.pdf
        $ Problem number 186
        $ Sequence length : 25
        language ESSENCE' 1.0
        letting sizemaster be 570
        letting sizes be sequence(3,9,10,33,36,38,40,42,50,51,60,69,72,75,77,90,113,140,141,151,152,189,200,229,230)
        